
  22    4
  10   10   10   10

   0   0   0   0   0   8 2 3 5 6 7 8 9 13 
   6  10  10  10  10   3 19 11 4 
   6  10  10  10  10   5 19 18 16 11 10 
  10  10  10  10  10   4 18 17 12 10 
   4  10  10  10  10   4 21 19 17 10 
   8  10  10  10  10   4 20 16 14 11 
   9  10  10  10  10   5 19 18 17 16 14 
   8  10  10  10  10   4 18 16 15 14 
   7  10  10  10  10   3 17 16 14 
   8  10  10  10  10   2 15 14 
   2  10  10  10  10   2 17 15 
   8  10  10  10  10   2 16 15 
   6  10  10  10  10   2 18 14 
   6  10  10  10  10   1 22
   5  10  10  10  10   1 22
   8  10  10  10  10   1 22
   8  10  10  10  10   1 22
   7  10  10  10  10   1 22
   9  10  10  10  10   1 22
   5  10  10  10  10   1 22
   8  10  10  10  10   1 22
   0   0   0   0   0   0 
